26 27
22 33
25 49
31 2
48 35
39 30
22 28
8 20
49 45
32 14
47 26
15 41
34 27
3 34
48 29
3 29
39 22
8 37
21 7
40 6
12 13
22 42
18 35
38 27
41 32
45 28
1 0
39 17
15 9
28 38
14 35
12 35
21 30
13 45
20 30
11 42
46 23
8 28
14 5
16 42
27 48
40 38
32 47
24 49
25 24
8 45
27 13
26 16
35 6
38 12
